c Lingeling SAT Solver
c 
c Version ala b02aa1a04343558c4252b5f4a723be021964f652
c 
c Copyright (C) 2010-2012 Armin Biere JKU Linz Austria.
c All rights reserved.
c 
c released Sat Oct 13 14:05:26 CEST 2012
c compiled Sat Feb 16 02:48:12 EST 2013
c 
c gcc (Debian 4.4.5-8) 4.4.5
c -Wall -O3 -DNLGLOG -DNDEBUG -DNCHKSOL -DNLGLPICOSAT 
c Linux greencar2 2.6.32-5-amd64 x86_64
c 
c reading input file p60.cnf
c no embedded options
c found 'p cnf 221256 683065' header
c read 221256 variables, 683065 clauses, 1421198 literals in 0.0 seconds
c
c feature vars 221256
c feature lits.total 1421198
c feature lits.pos 757603
c feature lits.neg 663595
c feature clauses.total 683065
c feature clauses.unit 82364
c feature clauses.bin 482069
c feature clauses.trn 117232
c feature clauses.lrg 1400
c feature cog.val.min 1
c feature cog.val.avg 98561
c feature cog.val.max 212180
c feature cog.var.min 1
c feature cog.var.avg 110629
c feature cog.var.max 221255
c
c
c --abstime=0
c --acts=2
c --actavgmax=120
c --actstdmin=20
c --actstdmax=80
c --agile=23
c --bias=2
c --block=1
c --blkrtc=0
c --blkclslim=2000
c --blkocclim=2000
c --blkmaxeff=2147483647
c --blkmineff=10000000
c --blkreleff=20
c --card=0
c --cce=3
c --ccemaxeff=100000000
c --ccemineff=5000000
c --ccereleff=3
c --check=0
c --cgrclsr=1
c --cgrmaxority=20
c --cgrmaxeff=8000000
c --cgrmineff=200000
c --cgreleff=1
c --cgrexteq=1
c --cgrextand=1
c --cgrextunits=1
c --cgrextite=1
c --cgrextxor=1
c --cliff=1
c --cliffreleff=8
c --cliffmineff=10000000
c --cliffmaxeff=100000000
c --compact=0
c --decompose=1
c --defragint=10000000
c --defragfree=50
c --elim=1
c --elmrtc=0
c --elmblk=1
c --elmclslim=1000
c --elmocclim=1000
c --elmaxeff=100000000
c --elmineff=5000000
c --elmreleff=10
c --sleeponabort=0
c --exitonabort=0
c --flipping=1
c --flipint=2
c --flipdur=50
c --fliptop=1
c --force=0
c --gauss=1
c --gaussextrall=1
c --gaussmaxor=20
c --gaussexptrn=1
c --gaussmaxeff=50000000
c --gaussmineff=2000000
c --gaussreleff=2
c --gluescale=2
c --gluekeep=0
c --inprocessing=1
c --cintinc=10000
c --irrlim=20
c --lift=1
c --lftmaxeff=20000000
c --lftmineff=500000
c --lftreleff=6
c --lhbr=1
c --lkhd=1
c --clim=-1
c --mocint=1000
c --move=2
c --log=-1
c --otfs=1
c --phase=0
c --phaseneginit=0
c --plain=0
c --probe=1
c --prbasicmaxeff=100000000
c --prbasicmineff=1000000
c --prbasicreleff=10
c --prbasic=1
c --prbasicroundlim=9
c --queuemergelim=10000
c --queuefactor=833
c --queueinc=20
c --rmincpen=4
c --seed=0
c --smallirr=90
c --smallve=1
c --smallvevars=12
c --randec=1
c --randecint=1000
c --redfixed=0
c --redlbound=0
c --redlexpfac=10
c --redldoutfac=0
c --redloutinc=10000
c --redlinit=1000
c --redlinc=1000
c --redinoutinc=100
c --redlmininc=10
c --redlmaxinc=200
c --redlminrel=10
c --redlmaxrel=300
c --redlminabs=500
c --redlmaxabs=1000000
c --reduce=1
c --restart=2
c --restartint=5
c --rstinoutinc=110
c --simplify=1
c --simpdelay=100
c --simpen=4
c --sizepen=1000000
c --sizemaxpen=3
c --sortlits=0
c --syncint=111111
c --termint=122222
c --ternres=1
c --ternresrtc=0
c --trnrmineff=4000000
c --trnrmaxeff=40000000
c --trnreleff=10
c --transred=1
c --trdmineff=100000
c --trdmaxeff=2000000
c --trdreleff=10
c --unhide=1
c --unhdextstamp=1
c --unhdhbr=0
c --unhdmaxeff=20000000
c --unhdmineff=1000000
c --unhdreleff=4
c --unhdlnpr=3
c --unhdroundlim=5
c --verbose=1
c --witness=1
c [limits] no conflict limit
c [limits] simplification delayed by 100 to 100 conflicts
c 
c  seconds         irredundant          redundant clauses agility   height
c          variables clauses conflicts large binary ternary    glue         MB
c 
c *    0.0  121432   505639         0       0      0     0  63  0.0   0.0   41
c [cut-width] 167552, max 261928, min4 106808 at 75%, min10 35345 at 89%
c [decision-order] bias 1, old 1
c [queue-schedule-all-variables]
c s    0.0  121432   505639         0       0      0     0  63  0.0   0.0   41
c [simplification-1] limit hit at 100 conflicts
c [simplification-1] simplification penalty of 4
c [ternres-1] limit 4000000 with penalty 0 = 0 + 0
c [ternres-1] all 121432 free variables schedulable
c [ternres-1] 0 ternary resolvents (0 bin, 0 trn)
c [ternres-1] 12960 variables remain 11% (108472 retained)
c [gauss-1] limit 2000000 penalty 0 = 0 + 0
c [gauss-1] extracted 168730 xors of average arity 2.0
c [gauss-1] connected 337464 occurrences of 81046 variables (average 4.2)
c [gauss-1] limit 2000000 penalty 0 = 0 + 0
c [gauss-1] exported 0 unary, 0 binary and 0 ternary equations
c G    1.3  121432   483117       100      90      4     6  30  3.5 417.2   27
c d    1.5   55556   249733       100      90      4     0  30  3.5 417.2   21
c [basicprobe-1] limit 1000000 penalty 0 = 0 + 0
c [basicprobe-1-0] 4364 probes remain 8% after last round
c [basicprobe-1-0] 2 units = 2 failed (100%) + 0 lifted (0%)
c [basicprobe-1-0] removed 2 variables, found 3853 hbrs
c p    1.6   55554   249733       100      90   3857     0  30  3.5 417.2   25
c [cgrclsr-1] limit 200000 penalty 0 = 0 + 0
c [cgrclsr-1] all 55554 free variables schedulable
c [cgrclsr-1] fully completed congruence closure
c [lift-1] limit 500000 with penalty 0 = 0 + 0
c [lift-1] using 55554 probes 100%
c [lift-1] 55521 variables remain 100% (33 retained)
c [cliff-1] limit of 10000000 steps penalty 0 = 0 + 0
c [cliff-1] failed 1, lifted 4
c K    2.6   55548   249723       100      90  16915     0  30  3.5 417.2   25
c [unhide-1] limit 1000000 with penalty 0 = 0 + 0
c [unhide-1-1] 0 units, 0 failed, 20144 tauts, 0 hbrs, 82 literals
c u    2.8   55548   229552       100      90  16912     0  30  3.5 417.2   25
c [transred-1] limit 100000 with penalty 0 = 0 + 0
c t    2.8   55548   229549       100      90  16899     0  30  3.5 417.2   25
c [block-1] scheduling all variables this time
c [block-1] scheduled 55548 variables 100%
c [block-1] limit of 10000000 steps penalty 0 = 0 + 0
c [block-1] fully completed blocked clause elimination
c [block-1] transition to [ all 0 rem 0 ] state
c [block-1] eliminated 4800 blocked clauses
c k    3.1   55548   224749       100      90  16899  4800  30  3.5 417.2   21
c [cce-1] scheduling all variables this time
c [cce-1] limit of 10000000 steps penalty 0 = 0 + 0
c [cce-1] incomplete covered clause elimination 49572 not tried 89%
c [cce-1] transition to [ all 1 rem 1 ] state
c [cce-1] eliminated 558 covered clauses
c E    3.8   55545   224191       100      90  25858  4800  30  3.5 417.2   21
c [elim-1] scheduling all variables this time
c [elim-1] scheduled 55545 variables 100%
c [elim-1] limit of 5000000 steps penalty 0 = 0 + 0
c [elim-1] incomplete variable elimination 40344 not tried 73%
c [elim-1] transition to [ all 1 rem 1 ] state
c [elim-1] eliminated 7030 = 13% variables out of 55545
c e    5.4   48515   219645       100      44   9076   598  30  3.5 417.2   21
c [phase-1] phase bias: 1344 positive 16%, 6850 negative 84%
c [simplification-1] removed 72917 variables 60%
c [simplification-1] limit increments divided by 31
c [simplification-1] arithmetic increase of conflict limit interval by 322
c [simplification-1] new irredundant limit 2218557
c [simplification-1] new conflict limit 422
c [simplification-1] simplification penalty reduced to 3
c R    5.5   48515   219645       161      97   9076   606  22  4.8 469.5   25
c R    5.8   48515   219645       405     284   9089   645   4  4.7 409.5   25
c [simplification-2] limit hit at 425 conflicts
c [simplification-2] simplification penalty of 3
c [ternres-2] limit 2000000 with penalty 1 = 1 + 0
c [ternres-2] 5163 schedulable variables 11%
c [ternres-2] 14 ternary resolvents (0 bin, 14 trn)
c [ternres-2] fully completed ternary resolution
c T    5.8   48515   219645       425     301   9090   661   3  4.9 406.9   26
c [gauss-2] limit 1000000 penalty 1 = 1 + 0
c [gauss-2] extracted 508 xors of average arity 3.0
c [gauss-2] connected 1524 occurrences of 1191 variables (average 1.3)
c [gauss-2] limit 1000000 penalty 1 = 1 + 0
c [gauss-2] fully completed
c [gauss-2] exported 0 unary, 0 binary and 0 ternary equations
c G    6.0   48515   219645       425     301   9090   661   3  4.9 406.9   21
c [basicprobe-2] limit 1000000 penalty 0 = 0 + 0
c [basicprobe-2-0] 4086 probes remain 8% after last round
c [basicprobe-2-0] removed 0 variables, found 2080 hbrs
c p    6.2   48515   219645       425     301  11170   661   3  4.9 406.9   25
c [cgrclsr-2] limit 100000 penalty 1 = 1 + 0
c [cgrclsr-2] all 48515 free variables schedulable
c [cgrclsr-2] fully completed congruence closure
c [lift-2] limit 250000 with penalty 1 = 1 + 0
c [lift-2] using 48486 probes 100%
c [lift-2] 48465 variables remain 100% (50 retained)
c [cliff-2] limit of 10000000 steps penalty 0 = 0 + 0
c [cliff-2] failed 1, lifted 0
c K    7.1   48514   219645       425     301  12205   661   3  4.9 406.9   25
c [unhide-2] limit 1000000 with penalty 0 = 0 + 0
c [unhide-2-2] 0 units, 0 failed, 1808 tauts, 0 hbrs, 94 literals
c u    7.3   48514   219628       425     298  10404   657   3  4.9 406.9   25
c [transred-3] limit 100000 with penalty 0 = 0 + 0
c t    7.3   48514   219626       425     298  10401   657   3  4.9 406.9   25
c [block-2] scheduling all variables this time
c [block-2] scheduled 48514 variables 100%
c [block-2] limit of 10000000 steps penalty 0 = 0 + 0
c [block-2] fully completed blocked clause elimination
c [block-2] transition to [ all 0 rem 0 ] state
c [block-2] eliminated 0 blocked clauses
c [cce-2] 45682 variables 94% will be scheduled this time
c [cce-2] limit of 10000000 steps penalty 0 = 0 + 0
c [cce-2] 45045 variables 93% remain to be tried next time
c [cce-2] transition to [ all 0 rem 1 ] state
c [cce-2] eliminated 431 covered clauses
c E    8.1   48514   219195       425     298  10833   657   3  4.9 406.9   21
c [elim-2] 40255 variables 83% will be scheduled this time
c [elim-2] scheduled 40255 variables 83%
c [elim-2] limit of 5000000 steps penalty 0 = 0 + 0
c [elim-2] 30393 variables 63% remain to be tried next time
c [elim-2] transition to [ all 0 rem 1 ] state
c [elim-2] eliminated 1180 = 2% variables out of 48514
c e    9.8   47334   218749       425     295   6609   654   3  4.9 406.9   21
c [phase-2] phase bias: 1 positive 100%, 0 negative 0%
c [simplification-2] removed 1181 variables 2%
c [simplification-2] limit increments divided by 2
c [simplification-2] arithmetic increase of conflict limit interval by 5000
c [simplification-2] new irredundant limit 2218557
c [simplification-2] new conflict limit 5747
c [simplification-2] simplification penalty reduced to 2
c R   10.3   47334   218749       968     767   6625   703   5  6.0 313.6   25
c -   10.6   47334   218749      1297     508   6644   759   3  5.5 281.0   25
c 
c  seconds         irredundant          redundant clauses agility   height
c          variables clauses conflicts large binary ternary    glue         MB
c 
c R   11.3   47334   218749      2271    1382   6661   838   3  6.8 291.5   26
c -   13.2   47334   218749      4227    1525   6726  1039   6  6.8 289.9   26
c 1   13.5   47334   218749      5131    2398   6735  1056   9  7.8 296.9   26
c 
c  seconds         irredundant          redundant clauses agility   height
c          variables clauses conflicts large binary ternary    glue         MB
c 
c blkd: 2 bces, 4800 removed, 1313797 resolutions, 3653078 steps
c blkd: 7175 blocking literals 2%, 0 pure
c cces: 2 cces, 977 eliminated, 579 ate 59%, 398 abce 41%
c cces: 13224 probed, 1 lifted, 3 failed
c clff: 2 cliffs, 4 lifted, 2 failed
c clff: 9042 decisions, 20003645 steps
c clls: 1 sat, 0 simp, 0 freeze, 0 melt
c clls: 2104263 add, 0 assume,, 0 deref, 0 failed
c clls: 0 cassume, 0 mosat
c coll: 14 gcs, 0 rescored clauses
c cgrs: 2 count, 300000 esteps, 74495 csteps
c cgrs: 0 eqs, 0 units
c cgrs: 0 matched (0 ands 0%, 0 xors 0%, 0 ites 0%)
c cgrs: 0 simplified (0 ands 0%, 0 xors 0%, 0 ites 0%)
c cgrs: 2126 extracted (1811 ands 85%, 315 xors 15%, 0 ites 0%)
c dcps: 2 decompositions, 65876 equivalent 30%
c decs: 144419 decision, 150 random 0.104%
c decs: 35495 flipped 24.578% (in 32 phases)
c elms: 2 elims, 8210 eliminated 4%
c elms: 8003 small 97%, 207 large 3%
c elms: 25091 tried small, 8003 succeeded 32%, 17088 failed 68%
c elms: 0 subsumed, 0 strengthened, 198 blocked
c elms: 313401 copies, 219326 resolutions, 647193 ipos
c elms: 2 subchks, 0 strchks
c frcs: 0 computed, 31.9 - 68.1 average min-cut range
c gaus: 2 extractions, 169238 extracted, 2.0 size, 3 max
c gaus: exported 0 units, 0 binary and 0 ternary equations
c gaus: 0 gc, 6000184 steps, 3000092 extr 50%, 2229066 elim 37%
c glue: 7.8 avg, 2.8 scaled avg
c glue: 0 maxredglue=15 (0%)
c lift: 2 phases, 324 probed (108 level1 33%, 216 level2 67%)
c lift: 0 units, 0 equivalences, 0 implications
c hbrs: 28441 hbrs = 28441 trn 100% + 0 lrg 0%, 1 sub 0%
c lrnd: 5084 clauses, 3049 uips 60%, 17.1 length, 7.8 glue
c ints: 255 luby (28447 steps), 0 inout (0 steps)
c mins: 87076 learned lits, 3% minimized
c move: moved 5777, 977 binary 17%, 4800 ternary 83%
c otfs: str 274 dyn (246 red, 28 irr) 47 drv 17%, 227 rst 83%
c otfs: sub 1 dyn (1 red, 0 irr)
c phas: 2 computed, 8347 set, 1345 pos (16%), 7002 neg (84%)
c prbs: 2 basic, 2485 probed, 2 failed, 0 lifted
c prps: 19557212 props, 87 props/dec
c prps: 64% srch, 36% simp, 0% lkhd
c psns: 463398 searches, 31933 hits, 7% hit rate
c queu: 17073 new, 6515 del, 120 maximum priority
c queu: 10518 merged, 727 collected, 2 gcs
c queu: 5358 deprioritized, 21.4 lines on average
c reds: 2 count, 0 reset, 2 acts 100%, 0 exp 0%
c reds: 2 arithmetic 100%, 2 double 100%
c rmbd: 11 removed, 0 red 0%
c rsts: 224 restarts 88%, 30 skipped 12%
c rsts: 38 kept 17.0% average 51.9%
c simp: 2 count (0 ilim 0%, 0 plim 0%, 2 clim 100%)
c trnr: 2 count, 0 bin, 14 trn, 4375115 steps
c tops: 99836 fixed 45%, 0 iterations
c trds: 4 transitive reductions, 21 removed, 0 failed
c trds: 271 nodes, 342 edges, 200720 steps
c unhd: 2 count, 2 rounds, 2328174 steps
c unhd: 0 non-trivial sccs of average size 0.0
c unhd: 0 units, 0 bin, 0 trn, 0 lrg
c unhd: 0 failed, 0 stamp, 0 lits, 0 bin, 0 trn, 0 lrg
c unhd: 21952 tauts, 3 bin 0%, 4 trn 0%, 3 lrg 0%
c unhd: 21952 tauts, 21942 stamp 100%, 1811 red 8%
c unhd: 0 hbrs, 0 trn 0%, 0 lrg 0%, 0 red 0%
c unhd: 176 strd, 0 bin 0%, 0 trn 0%, 176 lrg 100%, 169 red 96%
c vars: 47334 remaining 21% and 173922 removed 79% out of 221256
c vars: 99836 fixed 45%, 8210 eliminated 4%, 65876 equivalent 30%
c vsts: 95380019 visits, 67% srch, 33% simp, 0% lkhd
c vsts: 5.1 search visits per propagation 12426.4 per conflict
c wchs: 8219143 pushed, 3573079 enlarged, 22 defrags
c 
c scaledglue  added       reduced       forcing      resolved     conflicts
c 
c all      4496 100      2032 100     30184 100      8593 100       685 100
c 
c  0          0   0         0   0         0   0         0   0         0   0 
c  1         25   1        12   1       223   1        32   0         1   0 
c  2       1280  28       818  40     11784  39      1937  23        81  12 
c  3       2041  45<      864  43<    14485  48<     4101  48<      349  51<
c  4        783  17       235  12      3072  10      1849  22       209  31 
c  5        217   5        53   3       396   1       389   5        25   4 
c  6         71   2        18   1       104   0       143   2        12   2 
c  7         34   1        12   1        55   0        59   1         6   1 
c  8         20   0         6   0        33   0        40   0         1   0 
c  9          6   0         3   0         7   0         9   0         0   0 
c 10         12   0         7   0        18   0        24   0         1   0 
c 11          6   0         4   0         6   0         9   0         0   0 
c 12          1   0         0   0         1   0         1   0         0   0 
c 13          0   0         0   0         0   0         0   0         0   0 
c 14          0   0         0   0         0   0         0   0         0   0 
c 15          0   0         0   0         0   0         0   0         0   0 
c 
c avg             3.1           2.9           2.8           3.2           3.4
c std             1.1           1.1           0.8           1.1           0.9
c 
c 144419 decisions, 5131 conflicts, 378.9 conflicts/sec
c 19557212 propagations, 1.4 megaprops/sec
c 13.5 seconds, 47.7 MB
c 
c    0.488   4% analysis
c    0.448   3% block
c    0.016   0% bump
c    0.000   0% card
c    1.328  10% cce
c    1.188   9% cliff
c    0.028   0% cutwidth
c    0.292   2% decide
c    0.000   0% force
c    1.012   7% gc
c    0.384   3% cgrclsr
c    0.384   3% decomp
c    0.260   2% defrag
c    3.168  23% elim
c    1.176   9% gauss
c    0.312   2% lift
c    0.072   1% mincls
c    0.072   1% phase
c    0.208   2% probe
c    0.012   0% reduce
c    0.228   2% restart
c    0.140   1% ternres
c    0.024   0% transred
c    0.472   3% unhide
c ==================================
c    0.036   0% preprocessing     0%
c    9.445  70% inprocessing    100%
c ==================================
c    9.481  70% simplifying
c    0.000   0% lookahead
c    4.044  30% search
c ==================================
c   13.541 100% all
c
s SATISFIABLE
